c clasp version 2.1.1
c Reading from pb_200_03.cnf
c Solving...
s UNSATISFIABLE

c Models        : 0     
c Time          : 286.823s (Solving: 286.10s 1st Model: 0.00s Unsat: 286.10s)
c CPU Time      : 286.360s
c Choices       : 1329437
c Conflicts     : 630140
c Restarts      : 1299   (Average: 485.10 Last: 7967)

c Variables     : 199970 (Eliminated: 61705 Frozen:    0)
c Constraints   : 213652 (Binary: 65.9% Ternary: 32.6% Other:  1.4%)
c Lemmas        : 630139 (Binary:  0.1% Ternary:  0.2% Other: 99.6%)
c   Conflict    : 630139 (Average Length: 59.6) 
c   Loop        : 0      (Average Length: 0.0) 
c   Other       : 0      (Average Length: 0.0)
c   Deleted     : 574083
